(set-logic QF_SLAH)

(declare-datatypes ((data_t 0)) (((c_data_t (sz Int)))))

(declare-heap (Int data_t))

(define-fun hck ((?x Int) (?y Int) (?v Int)) Bool
	(and
		(>= (- ?y ?x) 2) (<= (- ?y ?x) ?v)
		(sep (pto ?x (c_data_t (- ?y ?x))) (blk (+ ?x 1) ?y))
))

(define-fun-rec hls ((?x Int) (?y Int) (?v Int)) Bool
	(or
		(and (= ?x ?y) (_ emp Int data_t))
		(exists ((?w Int)) (sep (hck ?x ?w ?v) (hls ?w ?y ?v)))
))

(declare-const x0 Int)
(declare-const x1 Int)
(declare-const v0 Int)
(declare-const x2 Int)
(declare-const x3 Int)
(declare-const x4 Int)
(declare-const x5 Int)
(declare-const v4 Int)
(declare-const x6 Int)
(declare-const x7 Int)
(declare-const x8 Int)
(declare-const x9 Int)
(declare-const v8 Int)
(declare-const x10 Int)
(declare-const x11 Int)
(declare-const x12 Int)
(declare-const x13 Int)
(declare-const x14 Int)
(declare-const x15 Int)
(declare-const x16 Int)
(declare-const x17 Int)
(declare-const x18 Int)
(declare-const x19 Int)
(declare-const v18 Int)
(declare-const x20 Int)
(declare-const x21 Int)
(declare-const x22 Int)
(declare-const x23 Int)
(declare-const v22 Int)
(declare-const x24 Int)
(declare-const x25 Int)
(declare-const v24 Int)
(declare-const x26 Int)
(declare-const x27 Int)
(declare-const x28 Int)
(declare-const x29 Int)
(declare-const x30 Int)
(declare-const x31 Int)
(declare-const x32 Int)
(declare-const x33 Int)
(declare-const x34 Int)
(declare-const x35 Int)
(declare-const x36 Int)
(declare-const x37 Int)
(declare-const x38 Int)
(declare-const x39 Int)
(declare-const x40 Int)
(declare-const x41 Int)
(declare-const x42 Int)
(declare-const x43 Int)
(declare-const x44 Int)
(declare-const x45 Int)
(declare-const x46 Int)
(declare-const x47 Int)
(declare-const v46 Int)
(declare-const x48 Int)
(declare-const x49 Int)
(declare-const v48 Int)
(declare-const x50 Int)
(declare-const x51 Int)
(declare-const x52 Int)
(declare-const x53 Int)
(declare-const x54 Int)
(declare-const x55 Int)
(declare-const v54 Int)
(declare-const x56 Int)
(declare-const x57 Int)
(declare-const x58 Int)
(declare-const x59 Int)
(declare-const v58 Int)
(declare-const x60 Int)
(declare-const x61 Int)
(declare-const v60 Int)
(declare-const x62 Int)
(declare-const x63 Int)
(declare-const v62 Int)
(declare-const x64 Int)
(declare-const x65 Int)
(declare-const x66 Int)
(declare-const x67 Int)
(declare-const v66 Int)
(declare-const x68 Int)
(declare-const x69 Int)
(declare-const x70 Int)
(declare-const x71 Int)
(declare-const x72 Int)
(declare-const x73 Int)
(declare-const x74 Int)
(declare-const x75 Int)
(declare-const v74 Int)
(declare-const x76 Int)
(declare-const x77 Int)
(declare-const v76 Int)
(declare-const x78 Int)
(declare-const x79 Int)
(declare-const x80 Int)
(declare-const x81 Int)
(declare-const x82 Int)
(declare-const x83 Int)
(declare-const x84 Int)
(declare-const x85 Int)
(declare-const x86 Int)
(declare-const x87 Int)
(declare-const x88 Int)
(declare-const x89 Int)
(declare-const x90 Int)
(declare-const x91 Int)
(declare-const x92 Int)
(declare-const x93 Int)
(declare-const v92 Int)
(declare-const x94 Int)
(declare-const x95 Int)
(declare-const x96 Int)
(declare-const x97 Int)
(declare-const v96 Int)
(declare-const x98 Int)
(declare-const x99 Int)

(assert(and
(< x49 x3) (distinct x48 x85) (< x78 x4) (= x34 x68) (= x27 x15) 
(sep
(hls x0 x1 v0)
(pto x2 (c_data_t x3))
(hls x4 x5 v4)
(pto x6 (c_data_t x7))
(hls x8 x9 v8)
(pto x10 (c_data_t x11))
(blk x12 x13)
(pto x14 (c_data_t x15))
(blk x16 x17)
(hls x18 x19 v18)
(pto x20 (c_data_t x21))
(hls x22 x23 v22)
(hls x24 x25 v24)
(pto x26 (c_data_t x27))
(pto x28 (c_data_t x29))
(pto x30 (c_data_t x31))
(pto x32 (c_data_t x33))
(pto x34 (c_data_t x35))
(pto x36 (c_data_t x37))
(blk x38 x39)
(blk x40 x41)
(pto x42 (c_data_t x43))
(pto x44 (c_data_t x45))
(hls x46 x47 v46)
(hls x48 x49 v48)
(pto x50 (c_data_t x51))
(blk x52 x53)
(hls x54 x55 v54)
(pto x56 (c_data_t x57))
(hls x58 x59 v58)
(hls x60 x61 v60)
(hls x62 x63 v62)
(blk x64 x65)
(hls x66 x67 v66)
(pto x68 (c_data_t x69))
(pto x70 (c_data_t x71))
(pto x72 (c_data_t x73))
(hls x74 x75 v74)
(hls x76 x77 v76)
(pto x78 (c_data_t x79))
(pto x80 (c_data_t x81))
(blk x82 x83)
(blk x84 x85)
(pto x86 (c_data_t x87))
(blk x88 x89)
(blk x90 x91)
(hls x92 x93 v92)
(pto x94 (c_data_t x95))
(hls x96 x97 v96)
(blk x98 x99)
)))

(check-sat)